NAME : mtspf
TYPE : AGTSP
DIMENSION : 15
GTSP_SETS : 6
EDGE_WEIGHT_TYPE : EXPLICIT
EDGE_WEIGHT_FORMAT : FULL_MATRIX
EDGE_WEIGHT_SECTION
0 0 0 99999 99999 99999 99999 5 4 5 6 7 6 7 8 
0 0 0 6 7 6 5 -99996 -99997 -99998 -99997 6 5 6 7 
0 0 0 8 9 8 7 6 7 6 5 -99998 -99997 -99996 -99997 
0 0 0 0 0 0 0 4 3 4 5 6 5 6 7 
0 0 0 0 0 0 0 3 2 3 4 5 4 5 6 
0 0 0 0 0 0 0 4 3 4 5 6 5 6 7 
0 0 0 0 0 0 0 5 4 5 6 7 6 7 8 
0 0 0 99999 99999 99999 99999 0 0 0 0 4 3 4 5 
0 0 0 99999 99999 99999 99999 0 0 0 0 3 2 3 4 
0 0 0 99999 99999 99999 99999 0 0 0 0 4 3 4 5 
0 0 0 99999 99999 99999 99999 0 0 0 0 5 4 5 6 
0 0 0 99999 99999 99999 99999 4 5 4 3 0 0 0 0 
0 0 0 99999 99999 99999 99999 5 6 5 4 0 0 0 0 
0 0 0 99999 99999 99999 99999 4 5 4 3 0 0 0 0 
0 0 0 99999 99999 99999 99999 3 4 3 2 0 0 0 0 
GTSP_SET_SECTION
1 1 -1
2 2 -1
3 3 -1
4 4 5 6 7 -1
5 8 9 10 11 -1
6 12 13 14 15 -1
